NAME : XML100_3342_10
DIMENSION : 101
NB_CLUSTERS : 8
CLUSTERING_ALG : DBSCAN
CLUSTERING_PARAMS : eps(86), minSamples(3)
CLUSTERS
1 0
2 1 6 16 47 58 70 75 97
3 3 5 7 8 9 12 13 15 22 23 25 27 28 29 32 33 34 35 37 38 44 45 46 49 50 55 57 59 60 62 67 68 69 71 72 78 82 84 86 93 98 99 100
4 2 4 18 19 20 26 36 39 42 48 52 56 61 85 89 94
5 10 11 17 21 24 31 41 43 51 53 54 63 64 65 66 73 76 77 80 81 87 88 91 95 96
6 40 92
7 14 74 79
8 30 83 90
EOF